100 8
609 455
423 801
621 466
244 233
421 795
484 349
100 543
439 548
828 210
513 962
457 383
326 620
414 602
833 729
602 331
248 527
132 455
181 289
421 643
224 163
467 241
614 785
538 45
597 858
536 806
397 654
565 58
317 475
292 552
843 651
445 697
695 834
787 291
189 526
761 430
437 440
454 150
648 507
166 568
864 302
153 486
897 275
611 879
776 590
465 115
510 363
203 569
480 438
403 54
537 94
469 804
565 910
319 700
162 588
817 357
499 682
421 634
479 414
446 783
208 109
424 755
509 277
144 231
802 669
540 330
480 430
717 481
629 525
680 267
26 454
378 430
520 930
333 424
638 269
330 651
516 207
362 529
681 143
562 885
632 809
498 901
581 333
286 525
639 564
777 260
444 728
473 62
751 428
854 341
269 166
47 491
924 683
377 170
583 879
573 488
153 171
452 719
463 113
703 645
501 670
